swarm_exploration/utils/lkh_mtsp_solver/resource/amtsp_1.atsp
NAME : amtsp
TYPE : ATSP
DIMENSION : 5
EDGE_WEIGHT_TYPE : EXPLICIT
EDGE_WEIGHT_FORMAT : FULL_MATRIX
EDGE_WEIGHT_SECTION
100000 -100000 100000 100000 100000 
100000 100000 644 477 100000 
0 0 100000 205 341 
0 0 205 100000 269 
-100000 100000 341 269 100000 
