swarm_exploration/utils/lkh_mtsp_solver/resource/amtsp_1.tour
NAME : amtsp.-198977.tour
COMMENT : Length = -198977
COMMENT : Found by LKH [Keld Helsgaun] Wed Oct 11 06:28:29 2023
TYPE : TOUR
DIMENSION : 5
TOUR_SECTION
1
2
4
3
5
-1
EOF
